
Gurobi 10.0.0 (win64) logging started Thu Nov 30 21:46:38 2023

Set parameter LogFile to value "C:\Users\ealvarezq\Documents\GitHub\Comillas\Models\JointResearch\05. Models\06.Benchmarking\D.Representative_days_based_on_RES_and_Demand\3-bus_ByStages_nc200/openStarNet_3-bus_ByStages_nc200.log"
Set parameter Method to value 2
Set parameter MIPFocus to value 1
Set parameter Presolve to value 2
Set parameter RINS to value 100
Set parameter MIPGap to value 0.01
Set parameter Threads to value 9
Set parameter TimeLimit to value 259200
Set parameter IterationLimit to value 760000000
Gurobi Optimizer version 10.0.0 build v10.0.0rc2 (win64)

CPU model: Intel(R) Core(TM) i7-8700 CPU @ 3.20GHz, instruction set [SSE2|AVX|AVX2]
Thread count: 6 physical cores, 12 logical processors, using up to 9 threads

Optimize a model with 13270 rows, 5775 columns and 35391 nonzeros
Model fingerprint: 0x8a68011e
Variable types: 5766 continuous, 9 integer (9 binary)
Coefficient statistics:
  Matrix range     [5e-03, 8e+02]
  Objective range  [1e+00, 1e+00]
  Bounds range     [7e-06, 2e+00]
  RHS range        [7e-06, 1e+00]
Presolve removed 5230 rows and 1813 columns
Presolve time: 0.02s
Presolved: 8040 rows, 3962 columns, 26264 nonzeros
Variable types: 3953 continuous, 9 integer (9 binary)
Found heuristic solution: objective 76.9244362
Root relaxation presolved: 8040 rows, 3962 columns, 26264 nonzeros

Root barrier log...

Ordering time: 0.00s

Barrier statistics:
 Dense cols : 9
 AA' NZ     : 6.030e+04
 Factor NZ  : 1.305e+05 (roughly 6 MB of memory)
 Factor Ops : 2.347e+06 (less than 1 second per iteration)
 Threads    : 9

                  Objective                Residual
Iter       Primal          Dual         Primal    Dual     Compl     Time
   0   7.87861179e+04 -3.28259489e+06  3.76e-01 7.23e+01  6.75e+02     0s
   1   7.37800543e+03 -1.05935118e+06  2.60e-02 2.60e-09  8.33e+01     0s
   2   2.48300710e+03 -6.27177064e+04  3.79e-04 1.35e-09  4.33e+00     0s
   3   6.14048789e+02 -2.80132179e+03  7.05e-08 5.67e-11  2.25e-01     0s
   4   1.88047695e+02 -7.36535108e+02  4.55e-09 3.09e-11  6.10e-02     0s
   5   1.13336931e+02 -1.59273740e+02  1.48e-09 8.19e-12  1.80e-02     0s
   6   8.26042725e+01  6.88907940e+00  3.19e-10 2.50e-12  4.99e-03     0s
   7   7.04915297e+01  5.98510866e+01  2.06e-11 8.42e-13  7.02e-04     0s
   8   6.76295302e+01  6.44108644e+01  6.86e-12 1.00e-12  2.12e-04     0s
   9   6.74432448e+01  6.56573967e+01  5.66e-12 7.46e-13  1.18e-04     0s
  10   6.70560991e+01  6.56181775e+01  2.03e-12 8.26e-13  9.49e-05     0s
  11   6.69917942e+01  6.59614446e+01  1.68e-12 7.46e-13  6.80e-05     0s
  12   6.69535497e+01  6.64005062e+01  1.52e-12 8.01e-13  3.65e-05     0s
  13   6.67572699e+01  6.65315048e+01  4.07e-13 1.09e-12  1.49e-05     0s
  14   6.67168577e+01  6.66539202e+01  2.04e-13 1.81e-12  4.15e-06     0s
  15   6.66854713e+01  6.66788055e+01  4.57e-14 9.95e-13  4.40e-07     0s
  16   6.66800986e+01  6.66800919e+01  2.05e-13 8.75e-13  4.40e-10     0s
  17   6.66800932e+01  6.66800932e+01  1.01e-11 6.54e-13  4.40e-13     0s

Barrier solved model in 17 iterations and 0.14 seconds (0.11 work units)
Optimal objective 6.66800932e+01


Root relaxation: objective 6.668009e+01, 611 iterations, 0.10 seconds (0.07 work units)

    Nodes    |    Current Node    |     Objective Bounds      |     Work
 Expl Unexpl |  Obj  Depth IntInf | Incumbent    BestBd   Gap | It/Node Time

     0     0   66.68009    0    3   76.92444   66.68009  13.3%     -    0s
H    0     0                      67.1092087   66.68009  0.64%     -    0s
     0     0   66.68009    0    2   67.10921   66.68009  0.64%     -    0s

Cutting planes:
  MIR: 19

Explored 1 nodes (1078 simplex iterations) in 0.33 seconds (0.21 work units)
Thread count was 9 (of 12 available processors)

Solution count 2: 67.1092 76.9244 

Optimal solution found (tolerance 1.00e-02)
Best objective 6.710920865864e+01, best bound 6.668009319262e+01, gap 0.6394%

Gurobi 10.0.0 (win64) logging started Thu Nov 30 21:46:40 2023

Set parameter LogFile to value "C:\Users\ealvarezq\Documents\GitHub\Comillas\Models\JointResearch\05. Models\06.Benchmarking\D.Representative_days_based_on_RES_and_Demand\3-bus_ByStages_nc200/openStarNet_3-bus_ByStages_nc200.log"
Set parameter Method to value 2
Set parameter MIPFocus to value 1
Set parameter Presolve to value 2
Set parameter RINS to value 100
Set parameter MIPGap to value 0.01
Set parameter Threads to value 9
Set parameter TimeLimit to value 259200
Set parameter IterationLimit to value 760000000
No parameters matching 'relax_integrality' found
Gurobi Optimizer version 10.0.0 build v10.0.0rc2 (win64)

CPU model: Intel(R) Core(TM) i7-8700 CPU @ 3.20GHz, instruction set [SSE2|AVX|AVX2]
Thread count: 6 physical cores, 12 logical processors, using up to 9 threads

Optimize a model with 13270 rows, 5766 columns and 28146 nonzeros
Model fingerprint: 0x71c7dfc4
Coefficient statistics:
  Matrix range     [5e-03, 8e+02]
  Objective range  [1e+00, 1e+00]
  Bounds range     [7e-06, 2e+00]
  RHS range        [7e-06, 2e+00]
Presolve removed 12265 rows and 3622 columns
Presolve time: 0.00s
Presolved: 1005 rows, 2144 columns, 4154 nonzeros

Ordering time: 0.00s

Barrier statistics:
 AA' NZ     : 2.010e+03
 Factor NZ  : 3.015e+03 (roughly 1 MB of memory)
 Factor Ops : 1.106e+04 (less than 1 second per iteration)
 Threads    : 1

                  Objective                Residual
Iter       Primal          Dual         Primal    Dual     Compl     Time
   0   5.44075720e+04 -4.37039649e+05  3.16e-01 2.06e+02  4.87e+02     0s
   1   5.96395388e+03 -2.22514383e+05  2.03e-02 3.18e-12  6.93e+01     0s
   2   2.25903164e+03 -1.68780847e+04  4.09e-04 1.82e-12  4.53e+00     0s
   3   4.55836349e+02 -8.12978982e+02  1.22e-06 6.82e-12  2.96e-01     0s
   4   1.67708254e+02 -1.01832550e+02  1.05e-07 1.36e-12  6.29e-02     0s
   5   9.76321223e+01  1.82762912e+01  3.43e-08 7.45e-13  1.85e-02     0s
   6   7.57858842e+01  5.65001276e+01  9.51e-09 9.55e-13  4.50e-03     0s
   7   6.82083017e+01  6.51786750e+01  1.04e-09 5.69e-13  7.07e-04     0s
   8   6.71148856e+01  6.70702263e+01  8.33e-17 1.19e-12  1.04e-05     0s
   9   6.71093268e+01  6.71085981e+01  3.47e-17 9.91e-13  1.70e-07     0s
  10   6.71092089e+01  6.71092080e+01  2.78e-17 8.42e-13  2.08e-10     0s
  11   6.71092087e+01  6.71092087e+01  2.08e-17 9.69e-13  2.08e-13     0s

Barrier solved model in 11 iterations and 0.02 seconds (0.02 work units)
Optimal objective 6.71092087e+01

Crossover log...

       0 DPushes remaining with DInf 0.0000000e+00                 0s

       0 PPushes remaining with PInf 0.0000000e+00                 0s

  Push phase complete: Pinf 0.0000000e+00, Dinf 5.1664228e-13      0s

Iteration    Objective       Primal Inf.    Dual Inf.      Time
       3    6.7109209e+01   0.000000e+00   0.000000e+00      0s

Solved in 3 iterations and 0.02 seconds (0.02 work units)
Optimal objective  6.710920866e+01
